out/bwp_7_7_1_lp.out
2
0 0    0 0
1 0    1 0
4 0    4 0
0 1    0 1
5 1    5 1
6 0    6 1
2 -0    3 1
