out/bwp_7_7_1_lp.log
Tried aggregator 2 times.
MIP Presolve eliminated 13 rows and 7 columns.
MIP Presolve modified 114 coefficients.
Aggregator did 114 substitutions.
Reduced MIP has 450 rows, 406 columns, and 1071 nonzeros.
Reduced MIP has 253 binaries, 15 generals, 0 SOSs, and 12 indicators.
Presolve time = 0.00 sec. (1.01 ticks)
Found incumbent of value 9.000000 after 0.01 sec. (1.67 ticks)
Probing fixed 30 vars, tightened 62 bounds.
Probing time = 0.01 sec. (1.94 ticks)
Tried aggregator 3 times.
MIP Presolve eliminated 46 rows and 46 columns.
MIP Presolve modified 48 coefficients.
Aggregator did 148 substitutions.
Reduced MIP has 262 rows, 212 columns, and 709 nonzeros.
Reduced MIP has 171 binaries, 41 generals, 0 SOSs, and 6 indicators.
Presolve time = 0.00 sec. (1.21 ticks)
Probing time = 0.00 sec. (0.49 ticks)
Tried aggregator 2 times.
MIP Presolve eliminated 6 rows and 0 columns.
Aggregator did 1 substitutions.
Reduced MIP has 255 rows, 211 columns, and 697 nonzeros.
Reduced MIP has 171 binaries, 40 generals, 0 SOSs, and 6 indicators.
Presolve time = 0.00 sec. (0.52 ticks)
Probing time = 0.00 sec. (0.48 ticks)
Clique table members: 108.
MIP emphasis: balance optimality and feasibility.
MIP search method: dynamic search.
Parallel mode: deterministic, using up to 4 threads.
Root relaxation solution time = 0.00 sec. (0.53 ticks)

        Nodes                                         Cuts/
   Node  Left     Objective  IInf  Best Integer    Best Bound    ItCnt     Gap

*     0+    0                            9.0000        2.0000       76   77.78%
      0     0        2.0000   101        9.0000        2.0000       76   77.78%
      0     0        2.0000    33        9.0000      Cuts: 21       93   77.78%
*     0+    0                            3.0000        2.0000       93   33.33%
      0     0        2.0000     6        3.0000      Cuts: 25      112   33.33%
*     0+    0                            2.0000        2.0000      112    0.00%
      0     0        cutoff              2.0000        2.0000      112    0.00%
Elapsed time = 0.05 sec. (16.54 ticks, tree = 0.00 MB, solutions = 3)

Clique cuts applied:  3
Implied bound cuts applied:  6
Mixed integer rounding cuts applied:  7
Zero-half cuts applied:  7
Gomory fractional cuts applied:  9

Root node processing (before b&c):
  Real time             =    0.05 sec. (16.56 ticks)
Parallel b&c, 4 threads:
  Real time             =    0.00 sec. (0.00 ticks)
  Sync time (average)   =    0.00 sec.
  Wait time (average)   =    0.00 sec.
                          ------------
Total (root+branch&cut) =    0.05 sec. (16.56 ticks)
